2642
500000
332753
332753
332753
332753
332753
332753
332730
332730
332730
332730
332730
332730
332493
332493
332493
332493
332493
332493
332493
332493
332493
332493
332493
332493
332493
332493
327352
325636
325636
325636
325636
325636
325636
325636
325636
325636
325636
325636
325636
325636
325636
325636
325636
325636
325636
324824
324824
324824
324824
321579
321579
321579
321579
321579
321579
321579
321579
321579
321579
321579
321579
321579
321579
320079
320079
320079
320079
320079
320079
320079
320079
320079
320079
320079
320079
320079
320079
320079
320079
320079
319486
319486
319486
319486
319486
319486
319486
319486
319486
319486
319486
319486
319486
319157
319080
319080
319080
319080
319080
319080
319080
319080
319080
319080
319080
319080
319080
317759
317759
317759
317759
317759
317759
317759
317759
316487
316487
316487
316487
316487
316487
316487
316487
316487
316487
316487
316487
316487
316487
316487
316004
316004
316004
316004
316004
316004
316004
316004
316004
316004
316004
313015
313015
313015
313015
313015
313015
313015
313015
313015
313015
313015
313015
313015
313015
313015
313015
313015
313015
313015
312895
312895
312895
312895
312895
312895
312895
312895
312895
312895
312895
312895
312895
312895
312895
312895
312895
312895
312895
312895
312009
312009
312009
311510
311510
311510
311510
311510
311510
311510
311510
311510
311510
311510
311510
311510
311510
311510
311510
311510
311510
311510
310309
310309
310309
310309
310309
310309
310309
310309
310309
310309
310309
310309
310309
309230
309230
309230
309230
309230
309230
309230
309230
309230
309230
309230
309230
309230
309230
309230
309230
309230
309230
308664
308664
308664
308664
308664
308664
308664
308410
308410
308410
305413
305413
305413
305413
305413
305413
305413
305413
305413
305413
305413
305413
305413
305413
305413
305413
305143
305143
305143
305143
305143
305143
305143
305143
305143
305143
305143
305143
305143
305013
304878
304878
304878
304878
304878
304878
304878
304878
304878
304878
304878
304878
304878
300928
300928
300928
300928
300928
300927
300503
300503
300503
300503
300503
300503
300503
300503
300503
300503
300503
300503
300503
299800
299800
299800
299800
299800
299800
299800
299800
299800
299800
299800
299800
299800
299800
299800
299800
298023
297201
297201
297201
297201
297201
297201
297201
297201
297201
297201
297201
297201
297201
297201
297201
297201
297201
297061
297061
297061
297061
297061
297061
297061
297061
297061
297061
297061
297061
294058
294058
293657
293657
293657
293657
293657
293657
293657
293657
293657
293657
293657
293657
293657
293657
293657
293657
293657
293657
288387
288387
288387
288387
288387
286679
286679
286679
286679
286679
286679
286679
286679
286511
286377
286377
286377
286377
286377
286377
286377
286377
286377
286377
286377
286377
286377
286377
283851
283851
283851
283851
283851
283851
283851
283851
283851
283851
283851
283851
283851
283851
283851
283851
283851
283524
283524
283524
283524
283524
283524
283524
283524
283524
283524
283524
283524
283524
283524
283524
283524
283524
283524
282882
282882
282882
282882
282882
282882
282882
282882
282882
282882
282794
282794
282794
282794
282794
282794
282794
282794
281683
281061
281061
281061
281061
281061
281061
281061
281061
281061
281061
281061
281061
281061
281061
281061
281061
281061
280014
280014
280014
276172
276172
276172
276172
276172
276172
276172
276172
276172
276172
276172
276172
276172
276172
276172
276172
276172
276172
276172
275509
275509
274825
274825
274825
274825
274825
274825
274825
274825
274825
274825
274203
274203
274203
274203
274203
274203
274203
274203
274203
274203
274203
274203
274203
274203
273742
273742
273742
273742
273742
273742
273742
273742
273742
273742
273742
273742
273742
273742
273742
270413
270413
270413
270413
266675
266675
266675
266675
266675
266675
266675
266675
266675
266675
266675
266675
266675
266675
266675
266675
266031
266031
266031
266031
266031
266031
266031
266031
265787
265787
265787
265787
265787
265787
265787
265787
265787
265787
265787
265182
265182
265182
265182
265182
265182
265182
265182
265182
265182
265182
265182
265182
265182
265182
265182
265182
265182
265072
265072
265072
265072
265072
265072
265072
265072
265072
265072
265072
265072
265072
265072
265072
265072
265072
265072
265072
261596
261596
261596
261596
261596
261596
261596
261596
261596
261596
261596
261596
261596
261596
261596
261596
261596
261596
259754
259754
259754
259754
259754
259754
259754
259754
259754
259754
259754
259754
259754
259754
259754
259754
259754
259754
259754
259024
259024
259024
259024
259024
259024
259024
259024
259024
255761
255761
255761
255761
255761
255177
255177
255177
255177
255177
253183
253183
253183
253183
253183
253183
253183
253183
253183
253183
253183
253183
253183
250072
250072
250072
250072
250072
250072
250072
250072
250072
250072
250072
250072
250072
249386
244857
244857
244857
244857
244857
244857
244857
244857
244857
243576
243576
243576
243468
243468
243468
243468
243468
243468
243468
243468
243468
243239
243239
243239
243239
243239
243239
243239
243239
243239
243239
243003
242860
242860
242860
242860
242860
242860
242860
242860
242860
242860
242860
242860
242860
242860
242860
242860
242860
242860
242860
242009
242009
242009
242009
242009
242009
242009
240059
240059
240059
240059
240059
240059
240059
240059
240059
240059
239477
239477
239477
239477
239477
237778
237778
237778
237778
237778
237778
237778
237778
237778
237778
237778
237778
237778
237778
237778
237778
237778
237778
237778
236573
236573
236573
236573
236573
236573
236573
236573
236573
236573
236573
235601
235601
235601
235601
235601
235601
235601
235601
235601
235601
235601
235601
235601
235601
235356
235356
235356
235356
235356
235356
234102
234102
234102
234102
234102
233878
233878
233878
233878
233878
233878
233878
233878
233878
233878
233878
233470
233470
233470
233470
233470
233470
233470
233470
233470
233470
233470
233470
233470
233470
233470
233470
233470
233470
233470
233470
233249
230253
230253
229890
229890
229890
229890
229890
229890
229890
229890
229890
229890
229729
229729
229729
229729
229729
229729
229729
229729
229729
229729
228693
228693
228693
228693
228402
228402
228402
228402
228402
228402
225355
221022
220995
220995
220995
220995
220995
220995
220995
220995
220995
220995
220995
220995
220995
220995
220995
220995
220995
220995
219350
219350
219350
219350
219350
219350
219350
219350
219350
219350
219350
219350
219350
219350
219350
219350
219350
218196
218196
217385
217385
217385
217385
217385
217385
217385
217385
217385
217385
217385
217385
217142
217142
217142
217142
217142
217142
217142
217142
217142
217096
217096
217096
217096
217096
217096
217096
217096
217096
217096
217096
217096
217096
217096
215822
215822
215822
215822
215822
215822
213539
213539
213539
213539
213539
213539
213539
213539
213539
213539
213539
213539
213539
211936
211936
211936
206120
206120
206120
206120
206120
206120
206120
206120
206120
206120
206120
206120
206120
206120
205998
205998
205998
205998
205998
205998
205998
205998
205998
205998
205121
205121
205121
205121
205121
205121
205121
205121
205121
205121
205121
205121
205121
203290
203290
200272
200272
200272
200272
200272
200272
200272
200272
200272
199480
199480
199480
199480
199480
199480
199480
199480
199422
199422
199422
199422
197178
197178
197178
197178
197178
197178
197178
197178
197178
197178
197178
197178
197178
196144
196144
196144
196144
196144
196144
196144
196144
196144
196144
195585
195585
195585
195585
195585
195585
195585
195585
195109
195109
195109
195109
195109
195109
195109
195109
195109
195109
195109
195109
195109
192690
192690
192690
192690
192690
192690
192690
192690
192690
189871
189871
189871
189871
189871
189871
189871
189871
185707
185707
185707
185707
185707
185707
185200
185200
185200
185200
185200
185200
185200
185200
185200
185200
185200
185200
185200
185200
185200
185200
183039
183039
183039
183039
182885
182885
182885
182885
182885
182885
182885
182885
182885
182885
182885
182885
182885
182885
182885
182885
182885
182885
182742
182742
182742
182742
182742
182742
182742
182742
182742
182742
182742
182742
182742
182742
182197
182197
182197
182197
182197
182197
182197
182197
182197
182197
181462
181462
181462
181462
181462
181462
181462
181462
181462
181462
181462
181462
181462
181462
181462
181462
180844
180310
180310
180310
180310
180310
180310
180310
180310
180310
180310
180310
180310
180310
180310
180310
180310
180310
180310
180310
179971
179971
179971
179971
179971
179971
179971
179971
179971
179971
179971
179971
179971
179971
179971
179971
179971
178977
178977
178977
178977
178977
178977
178977
177393
177393
177393
177393
177393
177393
177393
177393
177393
176491
176491
176491
176491
176491
176491
176491
176491
176491
176491
176491
176491
176491
176491
176491
176491
176491
175138
175138
175138
175138
175138
175138
175138
175138
175138
175019
175019
175019
175019
175019
175019
175019
175019
175019
175019
175019
175019
175019
175019
175019
175019
175019
175019
174334
174334
174334
174334
174334
174334
174334
174334
174334
173835
173835
173835
173835
173835
169514
169514
169514
169514
169514
169514
169514
169514
169514
169514
169514
169514
169514
169514
169514
169514
169286
169286
169286
169286
169286
168883
168883
168883
168883
168883
168883
168883
168883
168883
168883
168883
168883
168883
168883
168883
168883
168883
168883
165142
165142
163727
163727
163727
163727
163727
163727
163727
163727
163727
163727
163727
163727
163727
163727
163727
163727
163727
163611
163611
163611
163611
163611
163611
163611
163611
163611
162154
162154
162154
162154
162154
162154
162154
162154
162154
162154
161817
161817
161817
161817
161817
161817
161817
161817
161817
161817
160855
160855
160855
160855
160855
160855
160855
160855
160855
160855
160855
160855
160855
160855
160855
160254
160254
160254
160254
160254
160254
160254
160254
160254
160254
160254
160254
160254
159334
159334
159334
159334
159334
159334
158312
158312
158312
158312
158312
158312
158312
158312
158312
158312
158312
158312
158312
158312
154258
154258
154258
154258
154258
154258
154258
154258
154258
154258
154258
154258
154258
154258
154258
154258
154235
154235
154235
154235
154235
154235
154235
154139
154139
154139
154139
154139
154139
154139
154139
154139
154139
154139
154139
154139
154139
154139
154139
154139
151857
151857
151857
151857
151857
151857
151857
151857
151857
151857
151857
151857
151857
151857
151857
151857
151857
149518
149518
149518
149518
149518
149518
149518
149518
149518
149518
149518
149518
149518
149518
149518
149518
149518
149518
149518
145959
145959
145959
145959
145959
145959
145847
145847
145847
145847
144773
144773
144773
144773
144773
144773
144773
144773
144773
144773
144773
144773
144773
144773
144773
144773
144773
144773
144489
144489
144489
144489
141472
141472
141472
141472
141472
141472
141472
141472
141472
141472
141472
141041
141041
141041
141041
141041
141041
141041
141041
141041
141041
140979
140979
140979
140979
140979
140979
140979
140979
140979
140979
132178
132178
132178
132178
132178
132178
132178
132178
129728
129728
129728
129728
129728
129728
129728
129728
129728
129728
129728
129728
129728
128600
128600
128600
128600
128600
128600
128600
127353
127353
127353
127353
127353
127353
127353
127353
127353
127353
127353
124361
124361
124361
124361
122818
122721
122721
122721
122721
122721
122721
122721
122721
122721
122721
122721
122721
122209
122209
122209
122209
122209
122209
122209
122209
122209
122209
122209
121227
121227
121227
121227
121227
121227
121227
121227
121227
121227
121227
121227
121227
121227
121227
121227
121227
121227
121122
121122
121122
121122
121122
121122
121122
121122
121122
121122
121122
121122
121122
121122
121122
121122
121122
121122
121122
121122
120974
120974
120974
120974
120974
120974
120974
120974
120974
120974
120974
120974
120974
118973
118973
118973
118973
118973
118973
118973
118973
118973
118973
118973
117910
117910
117910
117910
117910
117910
117910
117910
117910
117910
117910
117910
117910
117910
117910
117910
117910
117910
117910
116816
116816
116816
116816
116816
116816
116816
116816
116816
116816
116816
116816
116816
116816
116816
116816
113289
113289
113289
113289
113289
113289
113289
113289
113289
113289
113289
113289
113289
113289
113289
113289
113289
113289
111885
111885
111885
111885
111885
111885
111885
111885
111885
111885
111885
111885
111885
111885
111885
111885
111885
111885
111885
111885
110497
110497
110497
110497
110497
110497
110049
110049
110049
110049
110049
110049
110049
110049
110049
110049
110049
110049
110049
110049
110049
110049
110049
110049
110049
107735
107735
107735
107735
107735
107735
107735
107735
107735
107735
107735
106328
106328
106328
106328
106328
106328
106328
106328
106328
106328
106328
106328
106328
106328
106328
106328
106328
104507
104507
104507
104507
101035
101035
101035
101035
101035
101035
101035
101035
101035
101035
101035
101035
101035
98369
98369
96966
96966
96966
96966
96966
96966
96966
96966
96966
96966
96966
96966
96966
96966
96966
96966
96966
96966
96966
96958
96958
96958
96958
96958
96958
96958
96958
96958
96958
96958
96958
96958
96958
96958
96958
96958
96958
96446
96446
96446
96446
93538
93538
93538
93538
93538
93538
93538
93538
93538
93538
93538
92874
92874
92874
92874
92874
92874
92874
92874
92874
92874
92874
92874
92674
92674
92674
92674
92674
92674
92674
92674
92674
92674
90813
90813
90813
90813
90813
90813
90813
90813
90813
90813
90813
90813
90813
90813
90813
90787
90787
90787
90787
90787
90787
90787
90787
90787
89007
89007
89007
89007
89007
88384
88384
88384
88384
88384
88384
88384
88384
88384
88384
88384
88384
88384
88384
88384
88384
88384
88384
88384
88384
86629
86629
86629
86629
86629
86629
86629
86629
86629
86629
86629
86629
86629
86629
86629
86629
86058
86058
86058
86058
86058
86058
86058
86058
86058
86058
86058
86058
86058
86058
86058
86058
86058
86058
85828
85828
85828
85828
85828
85828
85828
85828
85828
85828
85828
85828
85046
85046
85046
85046
85046
85046
85046
85046
85046
85046
85046
85046
85046
85046
85046
85046
85046
85046
85046
85046
84943
84943
84943
84943
84943
84943
84943
84943
84943
84943
84943
84943
84943
84943
84943
84943
84943
84943
84447
84447
84447
84447
84447
84447
84447
84447
84447
84447
84447
84447
84447
84447
84447
84447
84447
82644
82644
82644
80506
80506
80506
80506
80506
80506
80506
80506
80506
80506
80506
80506
80506
79889
79889
79889
79889
79889
79889
79889
79889
79889
79889
79889
79889
79889
79889
79889
79889
79889
77808
74607
74607
74607
74607
74607
74607
74607
74607
73591
73591
73591
73591
73591
73591
73591
73591
73591
73591
73591
73591
72690
72690
72537
71835
71835
71835
71835
71835
71835
71835
71835
71835
71835
71835
71835
71835
71835
71835
71835
70161
70161
70161
70161
70161
70161
70161
66867
65652
65652
65652
65652
65652
65652
65652
65652
65652
65652
65652
65652
65652
65652
65652
65652
65652
65652
65652
65652
63225
63225
63225
63225
62859
62859
56185
56185
56185
56185
56185
56185
56185
56185
56185
54926
54926
54926
54926
54926
54926
54926
54926
54926
54926
54926
54825
54825
54825
54825
54825
54825
54825
54825
54825
54825
54825
54825
53519
53519
53519
53519
53519
53519
53519
53519
53519
53519
53519
53519
53519
53519
53519
53519
53519
53519
53519
53519
50059
50059
50059
50059
50059
50059
50059
49767
49767
49767
49767
49767
48147
48147
48147
48147
48147
48147
48147
48147
48147
48147
48147
48147
48147
48147
48147
48147
47667
47667
47667
47636
47636
47636
46653
46653
46653
46653
46653
46653
46653
46653
46653
46653
46653
46653
46653
46653
46653
46653
46653
46400
46400
46400
46400
46400
46400
46400
46400
46400
44157
44157
44157
44157
44157
44157
44157
44157
44157
44157
44157
44157
44157
44157
44157
44157
44157
44131
44131
44131
44131
44131
44131
44131
44131
44131
44131
44131
44131
44131
44131
43879
43879
43879
43879
43879
43879
43566
43566
43566
43566
43566
43566
43566
43566
43566
43566
43566
43566
43566
43566
43566
43566
43566
42595
42595
42595
42595
42595
42595
42595
42595
42595
42595
39849
39849
39849
39849
39849
39849
39849
39849
38222
38222
38222
38222
38222
38222
38222
38222
38222
35030
35030
35030
35030
35030
35030
35030
35030
34983
34983
34983
34983
34983
34983
34983
34983
34983
34983
34983
34983
34983
34983
34983
34983
34983
34983
34983
34983
34555
34555
34555
34555
34555
34555
34555
34555
34555
34555
34336
34336
34336
34336
34336
34336
34336
34336
34336
34336
34336
34255
34255
34255
34255
34255
34255
34255
34255
34255
34255
34255
34255
34255
33171
33171
33171
33171
33171
33171
33171
33171
33171
33171
32096
32096
32096
32096
32096
32096
32096
32096
32096
32096
32096
32096
32096
32096
32096
32096
32096
32096
32096
31323
31323
31323
31323
31323
31323
31323
31323
31323
31323
31323
31323
31323
31323
31323
31323
31323
31323
31323
31323
29233
27870
27870
27870
27870
27870
27870
27870
27870
27870
27870
27870
27870
27870
27870
27870
27870
27445
27445
27445
27445
27445
27445
27445
27445
24235
24235
24235
24235
24235
24235
24235
24235
20378
20378
20378
20378
20378
20378
20378
20378
20378
20378
20378
20378
20378
20378
20378
20378
20378
20378
20378
20378
20230
20230
20230
20230
20230
20230
20230
20230
20230
20230
20230
20230
20230
20230
16767
16767
16767
16767
16767
16767
16767
16361
16361
16361
16361
16361
16361
14536
14536
14536
14536
14536
14519
14519
14519
14519
14519
14519
14519
14519
14519
14519
14519
14042
14042
14042
14042
12267
12267
11122
11122
11122
11122
11122
11122
11122
11122
11122
11122
11122
11122
11122
11122
11122
11122
11007
11007
11007
11007
11007
11007
11007
11007
11007
11007
11007
11007
11007
11007
11007
11007
10452
10452
10452
10452
10452
9260
9260
9260
9260
9260
9260
9260
9260
9260
9260
9260
9260
9260
9260
8391
5641
5641
5204
5204
5204
5204
5204
5204
5204
